\* ring_proctection *\
Minimize
OBJ: S_0 + S_1 + S_10 + S_11 + S_12 + S_13 + S_14 + S_15 + S_16 + S_17 + S_2
 + S_3 + S_4 + S_5 + S_6 + S_7 + S_8 + S_9
Subject To
_C1: - NC_1 - NC_14 - NC_21 - NC_25 - NC_38 - NC_45 - NC_49 - NC_50 - NC_51
 - NC_52 - NC_53 - NC_54 - NC_55 - NC_56 - NC_57 - NC_58 - NC_59 - NC_60
 - NC_61 - NC_62 - NC_63 - NC_64 - NC_65 - NC_66 + S_0 = 0
_C10: - NC_18 - NC_19 - NC_2 - NC_20 - NC_21 - NC_22 - NC_23 - NC_24 - NC_26
 - NC_27 - NC_28 - NC_29 - NC_3 - NC_30 - NC_31 - NC_4 - NC_42 - NC_43 - NC_44
 - NC_45 - NC_46 - NC_47 - NC_48 - NC_49 - NC_5 - NC_50 - NC_51 - NC_52
 - NC_53 - NC_54 - NC_55 - NC_56 - NC_57 - NC_58 - NC_59 - NC_6 - NC_60 - NC_7
 - NC_72 - NC_73 - NC_74 - NC_75 - NC_76 - NC_77 - NC_78 - NC_79 + S_9 = 0
_C11: - NC_0 - NC_1 - NC_10 - NC_11 - NC_12 - NC_13 - NC_14 - NC_15 - NC_16
 - NC_17 - NC_18 - NC_19 - NC_2 - NC_20 - NC_21 - NC_22 - NC_23 - NC_24 - NC_3
 - NC_4 - NC_5 - NC_6 - NC_7 - NC_8 - NC_9 + S_10 = 0
_C12: - NC_14 - NC_15 - NC_16 - NC_17 - NC_2 - NC_26 - NC_27 - NC_28 - NC_29
 - NC_3 - NC_30 - NC_31 - NC_38 - NC_39 - NC_4 - NC_40 - NC_41 - NC_5 - NC_55
 - NC_56 - NC_57 - NC_58 - NC_59 - NC_6 - NC_60 - NC_7 - NC_71 - NC_76 - NC_77
 - NC_78 - NC_79 + S_11 = 0
_C13: - NC_0 - NC_25 - NC_26 - NC_27 - NC_28 - NC_29 - NC_30 - NC_31 - NC_32
 - NC_33 - NC_34 - NC_35 - NC_36 - NC_37 - NC_38 - NC_39 - NC_40 - NC_41
 - NC_42 - NC_43 - NC_44 - NC_45 - NC_46 - NC_47 - NC_48 + S_12 = 0
_C14: - NC_12 - NC_13 - NC_21 - NC_22 - NC_23 - NC_29 - NC_30 - NC_36 - NC_37
 - NC_45 - NC_46 - NC_47 - NC_5 - NC_52 - NC_53 - NC_58 - NC_59 - NC_6 - NC_65
 - NC_66 - NC_68 - NC_74 - NC_78 - NC_82 - NC_84 + S_13 = 0
_C15: - NC_10 - NC_11 - NC_13 - NC_16 - NC_17 - NC_19 - NC_20 - NC_23 - NC_24
 - NC_27 - NC_28 - NC_3 - NC_30 - NC_31 - NC_33 - NC_34 - NC_35 - NC_37 - NC_4
 - NC_40 - NC_41 - NC_43 - NC_44 - NC_47 - NC_48 - NC_50 - NC_51 - NC_53
 - NC_54 - NC_56 - NC_57 - NC_59 - NC_6 - NC_60 - NC_62 - NC_63 - NC_64
 - NC_66 - NC_67 - NC_68 - NC_69 - NC_7 - NC_70 - NC_9 + S_14 = 0
_C16: - NC_16 - NC_20 - NC_28 - NC_33 - NC_4 - NC_40 - NC_44 - NC_51 - NC_57
 - NC_62 - NC_69 - NC_73 - NC_77 - NC_80 - NC_83 - NC_9 + S_15 = 0
_C17: - NC_1 - NC_10 - NC_11 - NC_12 - NC_13 - NC_2 - NC_25 - NC_26 - NC_27
 - NC_28 - NC_29 - NC_3 - NC_30 - NC_31 - NC_32 - NC_33 - NC_34 - NC_35
 - NC_36 - NC_37 - NC_4 - NC_49 - NC_5 - NC_50 - NC_51 - NC_52 - NC_53 - NC_54
 - NC_6 - NC_7 - NC_71 - NC_72 - NC_73 - NC_74 - NC_75 - NC_8 - NC_9 + S_16
 = 0
_C18: - NC_1 - NC_10 - NC_11 - NC_12 - NC_13 - NC_14 - NC_15 - NC_16 - NC_17
 - NC_18 - NC_19 - NC_2 - NC_20 - NC_21 - NC_22 - NC_23 - NC_24 - NC_25
 - NC_26 - NC_27 - NC_28 - NC_29 - NC_3 - NC_30 - NC_31 - NC_32 - NC_33
 - NC_34 - NC_35 - NC_36 - NC_37 - NC_38 - NC_39 - NC_4 - NC_40 - NC_41
 - NC_42 - NC_43 - NC_44 - NC_45 - NC_46 - NC_47 - NC_48 - NC_5 - NC_6 - NC_7
 - NC_8 - NC_9 + S_17 = 0
_C19: NC_1 + NC_14 + NC_21 + NC_25 + NC_38 + NC_45 + NC_49 + NC_50 + NC_51
 + NC_52 + NC_53 + NC_54 + NC_55 + NC_56 + NC_57 + NC_58 + NC_59 + NC_60
 + NC_61 + NC_62 + NC_63 + NC_64 + NC_65 + NC_66 >= 0
_C2: - NC_0 - NC_25 - NC_26 - NC_27 - NC_28 - NC_29 - NC_30 - NC_31 - NC_32
 - NC_33 - NC_34 - NC_35 - NC_36 - NC_37 - NC_38 - NC_39 - NC_40 - NC_41
 - NC_42 - NC_43 - NC_44 - NC_45 - NC_46 - NC_47 - NC_48 + S_1 = 0
_C20: NC_0 + NC_25 + NC_26 + NC_27 + NC_28 + NC_29 + NC_30 + NC_31 + NC_32
 + NC_33 + NC_34 + NC_35 + NC_36 + NC_37 + NC_38 + NC_39 + NC_40 + NC_41
 + NC_42 + NC_43 + NC_44 + NC_45 + NC_46 + NC_47 + NC_48 >= 5
_C21: NC_10 + NC_15 + NC_16 + NC_19 + NC_22 + NC_27 + NC_29 + NC_3 + NC_32
 + NC_33 + NC_34 + NC_39 + NC_40 + NC_43 + NC_46 + NC_5 + NC_50 + NC_52
 + NC_56 + NC_58 + NC_61 + NC_62 + NC_63 + NC_67 + NC_68 + NC_72 + NC_76
 + NC_8 + NC_80 + NC_81 + NC_82 + NC_9 >= 0
_C22: NC_10 + NC_12 + NC_18 + NC_19 + NC_2 + NC_20 + NC_26 + NC_27 + NC_28
 + NC_3 + NC_34 + NC_36 + NC_4 + NC_42 + NC_43 + NC_44 + NC_49 + NC_50 + NC_51
 + NC_55 + NC_56 + NC_57 + NC_63 + NC_65 + NC_70 + NC_72 + NC_73 + NC_76
 + NC_77 + NC_81 + NC_82 + NC_83 >= 0
_C23: NC_12 + NC_15 + NC_18 + NC_2 + NC_22 + NC_26 + NC_29 + NC_32 + NC_36
 + NC_39 + NC_42 + NC_46 + NC_49 + NC_5 + NC_52 + NC_55 + NC_58 + NC_61
 + NC_65 + NC_67 + NC_68 + NC_69 + NC_70 + NC_8 >= 0
_C24: NC_10 + NC_13 + NC_24 + NC_31 + NC_34 + NC_37 + NC_48 + NC_54 + NC_60
 + NC_63 + NC_66 + NC_68 + NC_7 + NC_70 + NC_75 + NC_79 + NC_81 + NC_83
 + NC_84 >= 0
_C25: NC_14 + NC_15 + NC_16 + NC_17 + NC_18 + NC_19 + NC_20 + NC_21 + NC_22
 + NC_23 + NC_24 + NC_38 + NC_39 + NC_40 + NC_41 + NC_42 + NC_43 + NC_44
 + NC_45 + NC_46 + NC_47 + NC_48 + NC_49 + NC_50 + NC_51 + NC_52 + NC_53
 + NC_54 + NC_71 + NC_72 + NC_73 + NC_74 + NC_75 >= 0
_C26: NC_11 + NC_17 + NC_19 + NC_23 + NC_27 + NC_3 + NC_30 + NC_35 + NC_41
 + NC_43 + NC_47 + NC_50 + NC_53 + NC_56 + NC_59 + NC_6 + NC_64 + NC_67
 + NC_73 + NC_75 + NC_77 + NC_79 + NC_80 + NC_81 + NC_84 >= 0
_C27: NC_10 + NC_11 + NC_12 + NC_13 + NC_15 + NC_16 + NC_17 + NC_21 + NC_32
 + NC_33 + NC_34 + NC_35 + NC_36 + NC_37 + NC_39 + NC_40 + NC_41 + NC_45
 + NC_61 + NC_62 + NC_63 + NC_64 + NC_65 + NC_66 + NC_72 + NC_73 + NC_74
 + NC_75 + NC_76 + NC_77 + NC_78 + NC_79 + NC_8 + NC_9 >= 0
_C28: NC_18 + NC_19 + NC_2 + NC_20 + NC_21 + NC_22 + NC_23 + NC_24 + NC_26
 + NC_27 + NC_28 + NC_29 + NC_3 + NC_30 + NC_31 + NC_4 + NC_42 + NC_43 + NC_44
 + NC_45 + NC_46 + NC_47 + NC_48 + NC_49 + NC_5 + NC_50 + NC_51 + NC_52
 + NC_53 + NC_54 + NC_55 + NC_56 + NC_57 + NC_58 + NC_59 + NC_6 + NC_60 + NC_7
 + NC_72 + NC_73 + NC_74 + NC_75 + NC_76 + NC_77 + NC_78 + NC_79 >= 0
_C29: NC_0 + NC_1 + NC_10 + NC_11 + NC_12 + NC_13 + NC_14 + NC_15 + NC_16
 + NC_17 + NC_18 + NC_19 + NC_2 + NC_20 + NC_21 + NC_22 + NC_23 + NC_24 + NC_3
 + NC_4 + NC_5 + NC_6 + NC_7 + NC_8 + NC_9 >= 7
_C3: - NC_10 - NC_15 - NC_16 - NC_19 - NC_22 - NC_27 - NC_29 - NC_3 - NC_32
 - NC_33 - NC_34 - NC_39 - NC_40 - NC_43 - NC_46 - NC_5 - NC_50 - NC_52
 - NC_56 - NC_58 - NC_61 - NC_62 - NC_63 - NC_67 - NC_68 - NC_72 - NC_76
 - NC_8 - NC_80 - NC_81 - NC_82 - NC_9 + S_2 = 0
_C30: NC_14 + NC_15 + NC_16 + NC_17 + NC_2 + NC_26 + NC_27 + NC_28 + NC_29
 + NC_3 + NC_30 + NC_31 + NC_38 + NC_39 + NC_4 + NC_40 + NC_41 + NC_5 + NC_55
 + NC_56 + NC_57 + NC_58 + NC_59 + NC_6 + NC_60 + NC_7 + NC_71 + NC_76 + NC_77
 + NC_78 + NC_79 >= 0
_C31: NC_0 + NC_25 + NC_26 + NC_27 + NC_28 + NC_29 + NC_30 + NC_31 + NC_32
 + NC_33 + NC_34 + NC_35 + NC_36 + NC_37 + NC_38 + NC_39 + NC_40 + NC_41
 + NC_42 + NC_43 + NC_44 + NC_45 + NC_46 + NC_47 + NC_48 >= 3
_C32: NC_12 + NC_13 + NC_21 + NC_22 + NC_23 + NC_29 + NC_30 + NC_36 + NC_37
 + NC_45 + NC_46 + NC_47 + NC_5 + NC_52 + NC_53 + NC_58 + NC_59 + NC_6 + NC_65
 + NC_66 + NC_68 + NC_74 + NC_78 + NC_82 + NC_84 >= 0
_C33: NC_10 + NC_11 + NC_13 + NC_16 + NC_17 + NC_19 + NC_20 + NC_23 + NC_24
 + NC_27 + NC_28 + NC_3 + NC_30 + NC_31 + NC_33 + NC_34 + NC_35 + NC_37 + NC_4
 + NC_40 + NC_41 + NC_43 + NC_44 + NC_47 + NC_48 + NC_50 + NC_51 + NC_53
 + NC_54 + NC_56 + NC_57 + NC_59 + NC_6 + NC_60 + NC_62 + NC_63 + NC_64
 + NC_66 + NC_67 + NC_68 + NC_69 + NC_7 + NC_70 + NC_9 >= 0
_C34: NC_16 + NC_20 + NC_28 + NC_33 + NC_4 + NC_40 + NC_44 + NC_51 + NC_57
 + NC_62 + NC_69 + NC_73 + NC_77 + NC_80 + NC_83 + NC_9 >= 0
_C35: NC_1 + NC_10 + NC_11 + NC_12 + NC_13 + NC_2 + NC_25 + NC_26 + NC_27
 + NC_28 + NC_29 + NC_3 + NC_30 + NC_31 + NC_32 + NC_33 + NC_34 + NC_35
 + NC_36 + NC_37 + NC_4 + NC_49 + NC_5 + NC_50 + NC_51 + NC_52 + NC_53 + NC_54
 + NC_6 + NC_7 + NC_71 + NC_72 + NC_73 + NC_74 + NC_75 + NC_8 + NC_9 >= 0
_C36: NC_1 + NC_10 + NC_11 + NC_12 + NC_13 + NC_14 + NC_15 + NC_16 + NC_17
 + NC_18 + NC_19 + NC_2 + NC_20 + NC_21 + NC_22 + NC_23 + NC_24 + NC_25
 + NC_26 + NC_27 + NC_28 + NC_29 + NC_3 + NC_30 + NC_31 + NC_32 + NC_33
 + NC_34 + NC_35 + NC_36 + NC_37 + NC_38 + NC_39 + NC_4 + NC_40 + NC_41
 + NC_42 + NC_43 + NC_44 + NC_45 + NC_46 + NC_47 + NC_48 + NC_5 + NC_6 + NC_7
 + NC_8 + NC_9 >= 0
_C4: - NC_10 - NC_12 - NC_18 - NC_19 - NC_2 - NC_20 - NC_26 - NC_27 - NC_28
 - NC_3 - NC_34 - NC_36 - NC_4 - NC_42 - NC_43 - NC_44 - NC_49 - NC_50 - NC_51
 - NC_55 - NC_56 - NC_57 - NC_63 - NC_65 - NC_70 - NC_72 - NC_73 - NC_76
 - NC_77 - NC_81 - NC_82 - NC_83 + S_3 = 0
_C5: - NC_12 - NC_15 - NC_18 - NC_2 - NC_22 - NC_26 - NC_29 - NC_32 - NC_36
 - NC_39 - NC_42 - NC_46 - NC_49 - NC_5 - NC_52 - NC_55 - NC_58 - NC_61
 - NC_65 - NC_67 - NC_68 - NC_69 - NC_70 - NC_8 + S_4 = 0
_C6: - NC_10 - NC_13 - NC_24 - NC_31 - NC_34 - NC_37 - NC_48 - NC_54 - NC_60
 - NC_63 - NC_66 - NC_68 - NC_7 - NC_70 - NC_75 - NC_79 - NC_81 - NC_83
 - NC_84 + S_5 = 0
_C7: - NC_14 - NC_15 - NC_16 - NC_17 - NC_18 - NC_19 - NC_20 - NC_21 - NC_22
 - NC_23 - NC_24 - NC_38 - NC_39 - NC_40 - NC_41 - NC_42 - NC_43 - NC_44
 - NC_45 - NC_46 - NC_47 - NC_48 - NC_49 - NC_50 - NC_51 - NC_52 - NC_53
 - NC_54 - NC_71 - NC_72 - NC_73 - NC_74 - NC_75 + S_6 = 0
_C8: - NC_11 - NC_17 - NC_19 - NC_23 - NC_27 - NC_3 - NC_30 - NC_35 - NC_41
 - NC_43 - NC_47 - NC_50 - NC_53 - NC_56 - NC_59 - NC_6 - NC_64 - NC_67
 - NC_73 - NC_75 - NC_77 - NC_79 - NC_80 - NC_81 - NC_84 + S_7 = 0
_C9: - NC_10 - NC_11 - NC_12 - NC_13 - NC_15 - NC_16 - NC_17 - NC_21 - NC_32
 - NC_33 - NC_34 - NC_35 - NC_36 - NC_37 - NC_39 - NC_40 - NC_41 - NC_45
 - NC_61 - NC_62 - NC_63 - NC_64 - NC_65 - NC_66 - NC_72 - NC_73 - NC_74
 - NC_75 - NC_76 - NC_77 - NC_78 - NC_79 - NC_8 - NC_9 + S_8 = 0
Bounds
0 <= NC_0
0 <= NC_1
0 <= NC_10
0 <= NC_11
0 <= NC_12
0 <= NC_13
0 <= NC_14
0 <= NC_15
0 <= NC_16
0 <= NC_17
0 <= NC_18
0 <= NC_19
0 <= NC_2
0 <= NC_20
0 <= NC_21
0 <= NC_22
0 <= NC_23
0 <= NC_24
0 <= NC_25
0 <= NC_26
0 <= NC_27
0 <= NC_28
0 <= NC_29
0 <= NC_3
0 <= NC_30
0 <= NC_31
0 <= NC_32
0 <= NC_33
0 <= NC_34
0 <= NC_35
0 <= NC_36
0 <= NC_37
0 <= NC_38
0 <= NC_39
0 <= NC_4
0 <= NC_40
0 <= NC_41
0 <= NC_42
0 <= NC_43
0 <= NC_44
0 <= NC_45
0 <= NC_46
0 <= NC_47
0 <= NC_48
0 <= NC_49
0 <= NC_5
0 <= NC_50
0 <= NC_51
0 <= NC_52
0 <= NC_53
0 <= NC_54
0 <= NC_55
0 <= NC_56
0 <= NC_57
0 <= NC_58
0 <= NC_59
0 <= NC_6
0 <= NC_60
0 <= NC_61
0 <= NC_62
0 <= NC_63
0 <= NC_64
0 <= NC_65
0 <= NC_66
0 <= NC_67
0 <= NC_68
0 <= NC_69
0 <= NC_7
0 <= NC_70
0 <= NC_71
0 <= NC_72
0 <= NC_73
0 <= NC_74
0 <= NC_75
0 <= NC_76
0 <= NC_77
0 <= NC_78
0 <= NC_79
0 <= NC_8
0 <= NC_80
0 <= NC_81
0 <= NC_82
0 <= NC_83
0 <= NC_84
0 <= NC_9
0 <= S_0
0 <= S_1
0 <= S_10
0 <= S_11
0 <= S_12
0 <= S_13
0 <= S_14
0 <= S_15
0 <= S_16
0 <= S_17
0 <= S_2
0 <= S_3
0 <= S_4
0 <= S_5
0 <= S_6
0 <= S_7
0 <= S_8
0 <= S_9
Generals
NC_0
NC_1
NC_10
NC_11
NC_12
NC_13
NC_14
NC_15
NC_16
NC_17
NC_18
NC_19
NC_2
NC_20
NC_21
NC_22
NC_23
NC_24
NC_25
NC_26
NC_27
NC_28
NC_29
NC_3
NC_30
NC_31
NC_32
NC_33
NC_34
NC_35
NC_36
NC_37
NC_38
NC_39
NC_4
NC_40
NC_41
NC_42
NC_43
NC_44
NC_45
NC_46
NC_47
NC_48
NC_49
NC_5
NC_50
NC_51
NC_52
NC_53
NC_54
NC_55
NC_56
NC_57
NC_58
NC_59
NC_6
NC_60
NC_61
NC_62
NC_63
NC_64
NC_65
NC_66
NC_67
NC_68
NC_69
NC_7
NC_70
NC_71
NC_72
NC_73
NC_74
NC_75
NC_76
NC_77
NC_78
NC_79
NC_8
NC_80
NC_81
NC_82
NC_83
NC_84
NC_9
S_0
S_1
S_10
S_11
S_12
S_13
S_14
S_15
S_16
S_17
S_2
S_3
S_4
S_5
S_6
S_7
S_8
S_9
End
